(set-logic QF_UF)
(declare-sort U 0)
(declare-fun x0 () U)
(declare-fun y0 () U)
(declare-fun z0 () U)
(declare-fun x1 () U)
(declare-fun y1 () U)
(declare-fun z1 () U)
(declare-fun x2 () U)
(declare-fun y2 () U)
(declare-fun z2 () U)
(declare-fun x3 () U)
(declare-fun y3 () U)
(declare-fun z3 () U)
(declare-fun x4 () U)
(declare-fun y4 () U)
(declare-fun z4 () U)
(declare-fun x5 () U)
(declare-fun y5 () U)
(declare-fun z5 () U)
(declare-fun x6 () U)
(declare-fun y6 () U)
(declare-fun z6 () U)
(declare-fun x7 () U)
(declare-fun y7 () U)
(declare-fun z7 () U)
(declare-fun x8 () U)
(declare-fun y8 () U)
(declare-fun z8 () U)
(declare-fun x9 () U)
(declare-fun y9 () U)
(declare-fun z9 () U)
(declare-fun x10 () U)
(declare-fun y10 () U)
(declare-fun z10 () U)
(declare-fun x11 () U)
(declare-fun y11 () U)
(declare-fun z11 () U)
(declare-fun x12 () U)
(declare-fun y12 () U)
(declare-fun z12 () U)
(declare-fun x13 () U)
(declare-fun y13 () U)
(declare-fun z13 () U)
(declare-fun x14 () U)
(declare-fun y14 () U)
(declare-fun z14 () U)
(declare-fun x15 () U)
(declare-fun y15 () U)
(declare-fun z15 () U)
(declare-fun x16 () U)
(declare-fun y16 () U)
(declare-fun z16 () U)
(declare-fun x17 () U)
(declare-fun y17 () U)
(declare-fun z17 () U)
(declare-fun x18 () U)
(declare-fun y18 () U)
(declare-fun z18 () U)
(declare-fun x19 () U)
(declare-fun y19 () U)
(declare-fun z19 () U)
(declare-fun x20 () U)
(declare-fun y20 () U)
(declare-fun z20 () U)
(declare-fun x21 () U)
(declare-fun y21 () U)
(declare-fun z21 () U)
(declare-fun x22 () U)
(declare-fun y22 () U)
(declare-fun z22 () U)
(declare-fun x23 () U)
(declare-fun y23 () U)
(declare-fun z23 () U)
(declare-fun x24 () U)
(declare-fun y24 () U)
(declare-fun z24 () U)
(declare-fun x25 () U)
(declare-fun y25 () U)
(declare-fun z25 () U)
(declare-fun x26 () U)
(declare-fun y26 () U)
(declare-fun z26 () U)
(declare-fun x27 () U)
(declare-fun y27 () U)
(declare-fun z27 () U)
(declare-fun x28 () U)
(declare-fun y28 () U)
(declare-fun z28 () U)
(declare-fun x29 () U)
(declare-fun y29 () U)
(declare-fun z29 () U)
(declare-fun x30 () U)
(declare-fun y30 () U)
(declare-fun z30 () U)
(declare-fun x31 () U)
(declare-fun y31 () U)
(declare-fun z31 () U)
(declare-fun x32 () U)
(declare-fun y32 () U)
(declare-fun z32 () U)
(declare-fun x33 () U)
(declare-fun y33 () U)
(declare-fun z33 () U)
(declare-fun x34 () U)
(declare-fun y34 () U)
(declare-fun z34 () U)
(declare-fun x35 () U)
(declare-fun y35 () U)
(declare-fun z35 () U)
(declare-fun x36 () U)
(declare-fun y36 () U)
(declare-fun z36 () U)
(declare-fun x37 () U)
(declare-fun y37 () U)
(declare-fun z37 () U)
(declare-fun x38 () U)
(declare-fun y38 () U)
(declare-fun z38 () U)
(declare-fun x39 () U)
(declare-fun y39 () U)
(declare-fun z39 () U)
(declare-fun x40 () U)
(declare-fun y40 () U)
(declare-fun z40 () U)
(declare-fun x41 () U)
(declare-fun y41 () U)
(declare-fun z41 () U)
(declare-fun x42 () U)
(declare-fun y42 () U)
(declare-fun z42 () U)
(declare-fun x43 () U)
(declare-fun y43 () U)
(declare-fun z43 () U)
(declare-fun x44 () U)
(declare-fun y44 () U)
(declare-fun z44 () U)
(declare-fun x45 () U)
(declare-fun y45 () U)
(declare-fun z45 () U)
(declare-fun x46 () U)
(declare-fun y46 () U)
(declare-fun z46 () U)
(declare-fun x47 () U)
(declare-fun y47 () U)
(declare-fun z47 () U)
(declare-fun x48 () U)
(declare-fun y48 () U)
(declare-fun z48 () U)
(declare-fun x49 () U)
(declare-fun y49 () U)
(declare-fun z49 () U)
(declare-fun x50 () U)
(declare-fun y50 () U)
(declare-fun z50 () U)
(declare-fun x51 () U)
(declare-fun y51 () U)
(declare-fun z51 () U)
(declare-fun x52 () U)
(declare-fun y52 () U)
(declare-fun z52 () U)
(declare-fun x53 () U)
(declare-fun y53 () U)
(declare-fun z53 () U)
(declare-fun x54 () U)
(declare-fun y54 () U)
(declare-fun z54 () U)
(declare-fun x55 () U)
(declare-fun y55 () U)
(declare-fun z55 () U)
(declare-fun x56 () U)
(declare-fun y56 () U)
(declare-fun z56 () U)
(declare-fun x57 () U)
(declare-fun y57 () U)
(declare-fun z57 () U)
(declare-fun x58 () U)
(declare-fun y58 () U)
(declare-fun z58 () U)
(declare-fun x59 () U)
(declare-fun y59 () U)
(declare-fun z59 () U)
(declare-fun x60 () U)
(declare-fun y60 () U)
(declare-fun z60 () U)
(declare-fun x61 () U)
(declare-fun y61 () U)
(declare-fun z61 () U)
(declare-fun x62 () U)
(declare-fun y62 () U)
(declare-fun z62 () U)
(declare-fun x63 () U)
(declare-fun y63 () U)
(declare-fun z63 () U)
(declare-fun x64 () U)
(declare-fun y64 () U)
(declare-fun z64 () U)
(declare-fun x65 () U)
(declare-fun y65 () U)
(declare-fun z65 () U)
(assert (or (= (= x0 x65) false) (not (not (= x0 x65)))))
(assert (or (not (not (not (= x0 x65)))) (= x0 x65)))
(assert (not (= (= x0 x65) false)))
(assert (not (= x0 x65)))
(check-sat)
(exit)
